decision_x1=[0,7];
decision_x2=[0,7];
decision_x3=[0,7];
decision_x4=[0,7];
decision_x5=[0,7];
decision_x6=[0,7];
decision_x7=[0,7];
decision_x8=[0,7];
decision_x9=[0,7];
decision_x10=[0,7];
decision_x11=[0,7];
decision_x12=[0,7];
decision_x13=[0,7];
decision_x14=[0,7];
decision_x15=[0,7];
decision_x16=[0,7];
decision_x17=[0,7];
decision_x18=[0,7];
random_y1=[0,7];
random_y2=[0,7];
random_y3=[0,7];
random_y4=[0,7];
random_y5=[0,7];
random_y6=[0,7];
random_y7=[0,7];
random_y8=[0,7];
constraint_x2_x1=[
0,0,7|
0,1,9.9|
0,2,0.99|
0,3,1.9|
0,4,6.5|
0,5,0.54|
0,6,2.9|
0,7,3.5|
1,0,2.8|
1,1,3.8|
1,2,6.3|
1,3,1.7|
1,4,8.2|
1,5,6.1|
1,6,7|
1,7,0.56|
2,0,4.6|
2,1,1.2|
2,2,6|
2,3,5|
2,4,3.4|
2,5,3.2|
2,6,9.7|
2,7,4.3|
3,0,1.2|
3,1,1.8|
3,2,5.5|
3,3,0.36|
3,4,0.34|
3,5,10|
3,6,3.2|
3,7,10|
4,0,8.6|
4,1,6.2|
4,2,7.5|
4,3,6.7|
4,4,8.1|
4,5,7|
4,6,2.4|
4,7,9.4|
5,0,8.5|
5,1,8.5|
5,2,7.4|
5,3,1.8|
5,4,8.7|
5,5,9|
5,6,8.8|
5,7,6.7|
6,0,2|
6,1,1.5|
6,2,8.2|
6,3,10|
6,4,0.97|
6,5,7|
6,6,7.3|
6,7,7.1|
7,0,2.9|
7,1,9.2|
7,2,2.3|
7,3,8.5|
7,4,0.26|
7,5,3.2|
7,6,3.2|
7,7,8.9|
];
constraint_x3_x2=[
0,0,7|
0,1,0.024|
0,2,4.7|
0,3,0.58|
0,4,8.5|
0,5,1.1|
0,6,0.95|
0,7,7.8|
1,0,6.1|
1,1,0.65|
1,2,9|
1,3,3.5|
1,4,6.4|
1,5,7.3|
1,6,1.6|
1,7,7.4|
2,0,9.9|
2,1,6.7|
2,2,5|
2,3,7.6|
2,4,7.2|
2,5,7.2|
2,6,7.9|
2,7,6.2|
3,0,2.7|
3,1,2.1|
3,2,0.7|
3,3,0.23|
3,4,4.1|
3,5,7.1|
3,6,9.2|
3,7,2.9|
4,0,0.27|
4,1,7|
4,2,9.3|
4,3,5.1|
4,4,8.8|
4,5,8.9|
4,6,7.8|
4,7,4|
5,0,0.52|
5,1,9.1|
5,2,9.2|
5,3,6.8|
5,4,7.3|
5,5,8.4|
5,6,4.4|
5,7,7|
6,0,6.9|
6,1,7.7|
6,2,2.3|
6,3,1.3|
6,4,4.8|
6,5,8.7|
6,6,6.1|
6,7,4.3|
7,0,2|
7,1,3.3|
7,2,2.2|
7,3,8.4|
7,4,5.9|
7,5,4.6|
7,6,7.3|
7,7,0.53|
];
constraint_x4_x3=[
0,0,2.9|
0,1,6.9|
0,2,4.9|
0,3,4.9|
0,4,6.9|
0,5,9.9|
0,6,3.7|
0,7,1.2|
1,0,4.5|
1,1,3.4|
1,2,5.2|
1,3,7.8|
1,4,3.5|
1,5,8.1|
1,6,4.8|
1,7,0.71|
2,0,1.8|
2,1,0.85|
2,2,6|
2,3,3.7|
2,4,4.9|
2,5,0.43|
2,6,0.65|
2,7,0.68|
3,0,7|
3,1,4.9|
3,2,1.7|
3,3,5.4|
3,4,5.7|
3,5,1.2|
3,6,2.9|
3,7,2.3|
4,0,3.1|
4,1,1.4|
4,2,9.7|
4,3,9.4|
4,4,8.8|
4,5,0.47|
4,6,2.5|
4,7,2.4|
5,0,6.5|
5,1,2.2|
5,2,3.4|
5,3,8.9|
5,4,2|
5,5,5.3|
5,6,8|
5,7,4.4|
6,0,4.3|
6,1,9.5|
6,2,6.8|
6,3,0.86|
6,4,3|
6,5,2.6|
6,6,0.99|
6,7,0.55|
7,0,8.5|
7,1,0.18|
7,2,4.5|
7,3,5.5|
7,4,2.3|
7,5,5.3|
7,6,5.9|
7,7,8.9|
];
constraint_x5_x1=[
0,0,3.3|
0,1,6.2|
0,2,3.7|
0,3,6.9|
0,4,3.4|
0,5,3.8|
0,6,7.6|
0,7,6.8|
1,0,0.93|
1,1,0.89|
1,2,2.4|
1,3,6.8|
1,4,6.9|
1,5,4.2|
1,6,8.5|
1,7,3.9|
2,0,0.094|
2,1,4.3|
2,2,0.72|
2,3,4.5|
2,4,4|
2,5,8.7|
2,6,5.2|
2,7,9.4|
3,0,6.4|
3,1,5.9|
3,2,2.3|
3,3,1.6|
3,4,9.9|
3,5,9.2|
3,6,9|
3,7,4.9|
4,0,2.9|
4,1,8.5|
4,2,6.1|
4,3,6.9|
4,4,4.3|
4,5,5.2|
4,6,8.7|
4,7,6.5|
5,0,10|
5,1,7.2|
5,2,5.2|
5,3,3.4|
5,4,0.44|
5,5,6.6|
5,6,2.6|
5,7,4.2|
6,0,6.6|
6,1,4.4|
6,2,1.8|
6,3,0.92|
6,4,6|
6,5,7.4|
6,6,9|
6,7,4.8|
7,0,2.9|
7,1,1.3|
7,2,2.7|
7,3,6.2|
7,4,0.98|
7,5,5.3|
7,6,8.8|
7,7,2.6|
];
constraint_x6_x2=[
0,0,1.9|
0,1,8.7|
0,2,4.2|
0,3,9|
0,4,6.4|
0,5,7.4|
0,6,5.3|
0,7,1.2|
1,0,3.8|
1,1,2.1|
1,2,0.28|
1,3,6.9|
1,4,4.1|
1,5,4.7|
1,6,5.3|
1,7,8.6|
2,0,3.2|
2,1,4.3|
2,2,3.5|
2,3,0.58|
2,4,0.4|
2,5,3.5|
2,6,0.96|
2,7,7.1|
3,0,8.3|
3,1,1.7|
3,2,5.4|
3,3,1|
3,4,5.4|
3,5,9.8|
3,6,4|
3,7,7.8|
4,0,3.3|
4,1,5.9|
4,2,5.3|
4,3,1.8|
4,4,5.9|
4,5,5|
4,6,1.8|
4,7,0.47|
5,0,4.4|
5,1,0.14|
5,2,6.3|
5,3,8.5|
5,4,2.9|
5,5,5.4|
5,6,9.4|
5,7,6.5|
6,0,4.7|
6,1,2.8|
6,2,1.9|
6,3,5.1|
6,4,9.3|
6,5,0.2|
6,6,4.6|
6,7,8.6|
7,0,1.7|
7,1,2.1|
7,2,0.14|
7,3,0.52|
7,4,8.6|
7,5,4.6|
7,6,4.9|
7,7,2.6|
];
constraint_x6_x5=[
0,0,8.7|
0,1,2|
0,2,2.3|
0,3,0.98|
0,4,8.2|
0,5,2.3|
0,6,0.34|
0,7,8.1|
1,0,3.9|
1,1,8.2|
1,2,6.1|
1,3,1.3|
1,4,3.6|
1,5,4.2|
1,6,7.6|
1,7,4.6|
2,0,5.3|
2,1,3.6|
2,2,8.1|
2,3,1.5|
2,4,8.3|
2,5,8.6|
2,6,2.8|
2,7,2|
3,0,1.1|
3,1,6.3|
3,2,5.3|
3,3,7.4|
3,4,9.1|
3,5,0.68|
3,6,1.1|
3,7,0.73|
4,0,7.1|
4,1,1.3|
4,2,8.1|
4,3,6.4|
4,4,2.4|
4,5,7.7|
4,6,0.87|
4,7,2.5|
5,0,9.1|
5,1,4.5|
5,2,10|
5,3,4.4|
5,4,2.2|
5,5,5.2|
5,6,6.6|
5,7,9.8|
6,0,0.092|
6,1,5.7|
6,2,9.5|
6,3,7.8|
6,4,6.9|
6,5,8.4|
6,6,7.2|
6,7,9.6|
7,0,3.1|
7,1,3.8|
7,2,6.5|
7,3,3.1|
7,4,4.5|
7,5,9.5|
7,6,1.7|
7,7,4.2|
];
constraint_x7_x3=[
0,0,7.4|
0,1,4.5|
0,2,5.6|
0,3,5.4|
0,4,0.92|
0,5,4.1|
0,6,0.042|
0,7,9.3|
1,0,1.6|
1,1,7.6|
1,2,3.3|
1,3,8.7|
1,4,7.3|
1,5,0.87|
1,6,4.5|
1,7,1.6|
2,0,6.1|
2,1,3.1|
2,2,8.8|
2,3,6.8|
2,4,9.6|
2,5,1.2|
2,6,0.092|
2,7,7.5|
3,0,7.7|
3,1,1.4|
3,2,6.3|
3,3,0.5|
3,4,7.7|
3,5,9.7|
3,6,8|
3,7,6.3|
4,0,3.1|
4,1,0.23|
4,2,6.1|
4,3,2.7|
4,4,1.2|
4,5,0.79|
4,6,2.2|
4,7,0.99|
5,0,3.6|
5,1,3.2|
5,2,0.62|
5,3,7.4|
5,4,1.1|
5,5,8.1|
5,6,7.1|
5,7,5.9|
6,0,4.5|
6,1,1.8|
6,2,1.8|
6,3,5.5|
6,4,1.1|
6,5,1.5|
6,6,0.5|
6,7,6.1|
7,0,3|
7,1,1.9|
7,2,7.6|
7,3,2|
7,4,1.9|
7,5,9.2|
7,6,9.2|
7,7,9.8|
];
constraint_x7_x6=[
0,0,5.2|
0,1,7.2|
0,2,1.2|
0,3,1.6|
0,4,1.2|
0,5,4.9|
0,6,2.8|
0,7,5.6|
1,0,0.22|
1,1,2.5|
1,2,2.2|
1,3,4.7|
1,4,6.7|
1,5,0.41|
1,6,8.3|
1,7,5.3|
2,0,0.51|
2,1,7.6|
2,2,5.7|
2,3,9.2|
2,4,4.6|
2,5,5.8|
2,6,0.95|
2,7,4.5|
3,0,7.4|
3,1,4.2|
3,2,2|
3,3,4.9|
3,4,5|
3,5,5.1|
3,6,9.2|
3,7,5.4|
4,0,7.5|
4,1,6|
4,2,6.1|
4,3,1|
4,4,9.4|
4,5,3.4|
4,6,1.9|
4,7,0.9|
5,0,5.5|
5,1,2.2|
5,2,7.8|
5,3,9.6|
5,4,8.4|
5,5,7.7|
5,6,8.9|
5,7,5.8|
6,0,9.2|
6,1,6.2|
6,2,6.1|
6,3,1.2|
6,4,9.5|
6,5,5.4|
6,6,4|
6,7,5.3|
7,0,6.7|
7,1,0.56|
7,2,2.2|
7,3,2.3|
7,4,2.2|
7,5,5|
7,6,1.5|
7,7,5.5|
];
constraint_x8_x4=[
0,0,1.4|
0,1,0.36|
0,2,6.6|
0,3,5.9|
0,4,1.2|
0,5,3.3|
0,6,7.2|
0,7,8.1|
1,0,1.1|
1,1,2.9|
1,2,7.6|
1,3,0.57|
1,4,3.7|
1,5,3.9|
1,6,0.98|
1,7,4.3|
2,0,7.2|
2,1,6.4|
2,2,9.8|
2,3,2.8|
2,4,3.1|
2,5,2.9|
2,6,7.5|
2,7,4.8|
3,0,3.4|
3,1,3.3|
3,2,2.3|
3,3,2.5|
3,4,6.8|
3,5,7.8|
3,6,6.4|
3,7,6.4|
4,0,1.7|
4,1,5.1|
4,2,2.2|
4,3,9.5|
4,4,9.4|
4,5,4.7|
4,6,4.1|
4,7,2|
5,0,4.3|
5,1,8.8|
5,2,3.3|
5,3,5.5|
5,4,0.55|
5,5,8.1|
5,6,1.6|
5,7,7.5|
6,0,3.2|
6,1,7|
6,2,7.8|
6,3,3|
6,4,8.4|
6,5,8.9|
6,6,4.8|
6,7,5.6|
7,0,6.4|
7,1,6.6|
7,2,2|
7,3,9.1|
7,4,6.5|
7,5,7.6|
7,6,7.7|
7,7,8.9|
];
constraint_x8_x7=[
0,0,6.7|
0,1,0.14|
0,2,8.9|
0,3,2.6|
0,4,9.4|
0,5,4.9|
0,6,5.4|
0,7,5.9|
1,0,7.3|
1,1,2.7|
1,2,2.2|
1,3,5.9|
1,4,5.5|
1,5,3.9|
1,6,9.2|
1,7,7.5|
2,0,9.4|
2,1,9.2|
2,2,1.3|
2,3,6.6|
2,4,7.6|
2,5,2.1|
2,6,7.6|
2,7,6.4|
3,0,9.9|
3,1,9.2|
3,2,2.1|
3,3,4.9|
3,4,0.21|
3,5,9.3|
3,6,7.6|
3,7,5.4|
4,0,8.9|
4,1,5.4|
4,2,5.2|
4,3,4.7|
4,4,1.2|
4,5,0.2|
4,6,6.3|
4,7,1.4|
5,0,4.7|
5,1,7.8|
5,2,2.5|
5,3,6.1|
5,4,3.6|
5,5,2.1|
5,6,9.8|
5,7,3.3|
6,0,2.5|
6,1,9.8|
6,2,6.4|
6,3,1.1|
6,4,6.6|
6,5,4.4|
6,6,4.4|
6,7,4.9|
7,0,7.9|
7,1,7.1|
7,2,7.9|
7,3,3|
7,4,9.3|
7,5,8.3|
7,6,2.6|
7,7,5.6|
];
constraint_x9_x5=[
0,0,6.4|
0,1,3.5|
0,2,8.3|
0,3,8.2|
0,4,4.4|
0,5,0.9|
0,6,0.35|
0,7,3.2|
1,0,6.1|
1,1,0.65|
1,2,1|
1,3,9.5|
1,4,9.3|
1,5,6.1|
1,6,5.2|
1,7,2.4|
2,0,5.8|
2,1,9.1|
2,2,5.4|
2,3,7.5|
2,4,4|
2,5,4.7|
2,6,2.6|
2,7,4.5|
3,0,3.1|
3,1,8.4|
3,2,2.4|
3,3,1.8|
3,4,2.6|
3,5,8.7|
3,6,6.7|
3,7,7.9|
4,0,8.6|
4,1,0.21|
4,2,2.1|
4,3,5.3|
4,4,9.9|
4,5,2.6|
4,6,6.7|
4,7,5|
5,0,2|
5,1,7.7|
5,2,1.7|
5,3,2.1|
5,4,3|
5,5,4.5|
5,6,4.2|
5,7,8.9|
6,0,1.8|
6,1,6.4|
6,2,4.9|
6,3,9.5|
6,4,4.5|
6,5,1.8|
6,6,7.5|
6,7,4.7|
7,0,5.3|
7,1,4.9|
7,2,2.1|
7,3,5.1|
7,4,3.3|
7,5,7.9|
7,6,3|
7,7,8|
];
constraint_x10_x6=[
0,0,1|
0,1,5.9|
0,2,5.3|
0,3,5.5|
0,4,5.5|
0,5,8.1|
0,6,4.5|
0,7,4.4|
1,0,2.3|
1,1,4.1|
1,2,0.65|
1,3,0.5|
1,4,0.62|
1,5,9.4|
1,6,0.75|
1,7,7.3|
2,0,6.9|
2,1,5.6|
2,2,6.7|
2,3,1.7|
2,4,6|
2,5,1.7|
2,6,0.62|
2,7,2.3|
3,0,3.4|
3,1,5.5|
3,2,6.3|
3,3,5.1|
3,4,5.5|
3,5,0.93|
3,6,3.7|
3,7,6.9|
4,0,2.8|
4,1,7.6|
4,2,4.8|
4,3,9.5|
4,4,9.9|
4,5,3.5|
4,6,6.4|
4,7,6.7|
5,0,7.5|
5,1,7.6|
5,2,1.6|
5,3,3.2|
5,4,5|
5,5,4.4|
5,6,3.3|
5,7,4.1|
6,0,8.5|
6,1,9.6|
6,2,0.46|
6,3,0.85|
6,4,2|
6,5,9.2|
6,6,0.32|
6,7,6.6|
7,0,3.1|
7,1,0.82|
7,2,3.1|
7,3,4.6|
7,4,4.7|
7,5,9.9|
7,6,6.2|
7,7,3.5|
];
constraint_x10_x9=[
0,0,6.4|
0,1,6.6|
0,2,3|
0,3,2.9|
0,4,8.8|
0,5,1|
0,6,4.4|
0,7,6|
1,0,0.34|
1,1,1.4|
1,2,6.7|
1,3,6.8|
1,4,0.43|
1,5,1.6|
1,6,6.9|
1,7,0.66|
2,0,0.38|
2,1,2.5|
2,2,6.1|
2,3,1|
2,4,7.5|
2,5,9.9|
2,6,8.7|
2,7,9.5|
3,0,0.65|
3,1,2.2|
3,2,5.6|
3,3,1.4|
3,4,0.85|
3,5,2.5|
3,6,9.5|
3,7,6.9|
4,0,4.3|
4,1,2.4|
4,2,5|
4,3,9.3|
4,4,2.7|
4,5,5.3|
4,6,2.7|
4,7,9.7|
5,0,1.9|
5,1,1|
5,2,3|
5,3,5.6|
5,4,1.7|
5,5,7.4|
5,6,6|
5,7,0.69|
6,0,8.1|
6,1,3|
6,2,8.1|
6,3,0.4|
6,4,8.9|
6,5,4.8|
6,6,9.6|
6,7,4.6|
7,0,9.4|
7,1,8.3|
7,2,5.5|
7,3,8.2|
7,4,5.5|
7,5,1.6|
7,6,1.1|
7,7,9.2|
];
constraint_x11_x7=[
0,0,9.2|
0,1,10|
0,2,8.4|
0,3,8.3|
0,4,1.9|
0,5,4.9|
0,6,4.2|
0,7,3.2|
1,0,0.11|
1,1,8.9|
1,2,5.8|
1,3,9.8|
1,4,6.6|
1,5,2.9|
1,6,8.2|
1,7,1.1|
2,0,5.1|
2,1,8|
2,2,4.3|
2,3,8.4|
2,4,7.2|
2,5,1.6|
2,6,6.3|
2,7,3.4|
3,0,0.086|
3,1,3.9|
3,2,7.6|
3,3,7.9|
3,4,1.9|
3,5,0.059|
3,6,5.2|
3,7,7.8|
4,0,0.8|
4,1,0.22|
4,2,0.56|
4,3,5.3|
4,4,7.1|
4,5,5.8|
4,6,3.1|
4,7,6.7|
5,0,7.3|
5,1,2.1|
5,2,2.7|
5,3,7.8|
5,4,2|
5,5,5.4|
5,6,4.9|
5,7,9.6|
6,0,9|
6,1,1.7|
6,2,1.5|
6,3,4.8|
6,4,6.8|
6,5,6.4|
6,6,7.9|
6,7,3.3|
7,0,9.1|
7,1,0.16|
7,2,8.9|
7,3,3.3|
7,4,9.9|
7,5,9.9|
7,6,8.9|
7,7,8.1|
];
constraint_x11_x10=[
0,0,3.2|
0,1,2.6|
0,2,4.1|
0,3,1.4|
0,4,2.7|
0,5,0.26|
0,6,2|
0,7,8.5|
1,0,9.1|
1,1,0.96|
1,2,5.6|
1,3,7.4|
1,4,9.2|
1,5,8.4|
1,6,4.8|
1,7,6.1|
2,0,6|
2,1,8.2|
2,2,0.53|
2,3,3.6|
2,4,9.8|
2,5,5.6|
2,6,8.8|
2,7,6.1|
3,0,0.74|
3,1,9.4|
3,2,0.46|
3,3,9.4|
3,4,3.4|
3,5,9.2|
3,6,8|
3,7,8.1|
4,0,1.1|
4,1,6.9|
4,2,6|
4,3,1.9|
4,4,6.8|
4,5,3.3|
4,6,6.4|
4,7,9.5|
5,0,7.3|
5,1,2.6|
5,2,6.4|
5,3,9.4|
5,4,1.3|
5,5,4.7|
5,6,3.5|
5,7,1.3|
6,0,5.1|
6,1,6|
6,2,4.7|
6,3,2.5|
6,4,5.6|
6,5,5|
6,6,4.1|
6,7,0.46|
7,0,5.7|
7,1,2.6|
7,2,7.8|
7,3,1.9|
7,4,3.8|
7,5,3|
7,6,2.8|
7,7,3|
];
constraint_x12_x8=[
0,0,2.8|
0,1,5.1|
0,2,1.4|
0,3,9|
0,4,4.9|
0,5,3.2|
0,6,5.1|
0,7,5.5|
1,0,4|
1,1,2.3|
1,2,4.3|
1,3,9.2|
1,4,5.9|
1,5,5.3|
1,6,0.36|
1,7,0.11|
2,0,2.2|
2,1,2.3|
2,2,9.4|
2,3,5.5|
2,4,7.7|
2,5,0.77|
2,6,5|
2,7,3.2|
3,0,1.9|
3,1,6.5|
3,2,2.3|
3,3,2|
3,4,1.5|
3,5,8.2|
3,6,0.041|
3,7,0.49|
4,0,1.6|
4,1,6.4|
4,2,5.7|
4,3,1.6|
4,4,0.63|
4,5,9.2|
4,6,6.3|
4,7,9.9|
5,0,3.3|
5,1,2.6|
5,2,4|
5,3,7.1|
5,4,10|
5,5,7.7|
5,6,9.4|
5,7,0.96|
6,0,5.7|
6,1,1.9|
6,2,1.9|
6,3,0.31|
6,4,1.6|
6,5,4.8|
6,6,2.7|
6,7,4|
7,0,1.3|
7,1,9.1|
7,2,2.8|
7,3,3|
7,4,7.3|
7,5,4|
7,6,9.5|
7,7,3.1|
];
constraint_x12_x11=[
0,0,6|
0,1,9.8|
0,2,0.97|
0,3,6.1|
0,4,0.26|
0,5,1.2|
0,6,0.41|
0,7,6.1|
1,0,4.1|
1,1,7.4|
1,2,7.5|
1,3,6|
1,4,7.1|
1,5,5|
1,6,6.8|
1,7,1.2|
2,0,0.28|
2,1,7.1|
2,2,0.67|
2,3,3.4|
2,4,6.4|
2,5,5.2|
2,6,3.3|
2,7,3.6|
3,0,7.4|
3,1,8.3|
3,2,10|
3,3,1.2|
3,4,5.4|
3,5,6.4|
3,6,3.6|
3,7,8.1|
4,0,7|
4,1,4.3|
4,2,9.8|
4,3,4.7|
4,4,9.3|
4,5,4.1|
4,6,9.4|
4,7,8.7|
5,0,1.6|
5,1,6.2|
5,2,1.2|
5,3,8.8|
5,4,6.3|
5,5,2.2|
5,6,8.6|
5,7,8.8|
6,0,8.3|
6,1,0.98|
6,2,4.2|
6,3,5.4|
6,4,3.5|
6,5,0.26|
6,6,7|
6,7,1.9|
7,0,8.6|
7,1,4|
7,2,6|
7,3,9.8|
7,4,4.7|
7,5,5.7|
7,6,6.8|
7,7,7.4|
];
constraint_x13_x9=[
0,0,9.3|
0,1,2.5|
0,2,8.2|
0,3,1.9|
0,4,8.3|
0,5,7.3|
0,6,8|
0,7,4.9|
1,0,8.5|
1,1,7.7|
1,2,7.7|
1,3,4.7|
1,4,4.5|
1,5,9.3|
1,6,9.4|
1,7,4.3|
2,0,9.4|
2,1,1.6|
2,2,8.2|
2,3,0.091|
2,4,7.8|
2,5,0.31|
2,6,4.1|
2,7,0.69|
3,0,0.14|
3,1,7.9|
3,2,9.8|
3,3,3|
3,4,5|
3,5,4.2|
3,6,3.5|
3,7,5.5|
4,0,1.8|
4,1,4.3|
4,2,5.6|
4,3,5.4|
4,4,7|
4,5,3.1|
4,6,6.3|
4,7,4.7|
5,0,3.5|
5,1,0.028|
5,2,1.4|
5,3,2.9|
5,4,0.73|
5,5,6.6|
5,6,0.72|
5,7,0.052|
6,0,3.8|
6,1,7.1|
6,2,5.1|
6,3,0.76|
6,4,0.98|
6,5,4.6|
6,6,5.7|
6,7,6.7|
7,0,1.1|
7,1,1.8|
7,2,1|
7,3,3.8|
7,4,1.1|
7,5,1.7|
7,6,7.2|
7,7,1.8|
];
constraint_x14_x10=[
0,0,4.1|
0,1,1.2|
0,2,3.2|
0,3,3.2|
0,4,2.6|
0,5,3.3|
0,6,5.6|
0,7,5.2|
1,0,0.58|
1,1,9|
1,2,2.8|
1,3,7.1|
1,4,4.5|
1,5,3.8|
1,6,6.3|
1,7,2.6|
2,0,4.4|
2,1,9.3|
2,2,2.1|
2,3,0.21|
2,4,2.5|
2,5,5.1|
2,6,2.1|
2,7,9.6|
3,0,2|
3,1,3.2|
3,2,4.4|
3,3,8.5|
3,4,3.8|
3,5,6.4|
3,6,8|
3,7,9.3|
4,0,8.1|
4,1,4|
4,2,1.2|
4,3,4.5|
4,4,8.1|
4,5,0.29|
4,6,0.68|
4,7,1.9|
5,0,0.087|
5,1,1.2|
5,2,1.6|
5,3,9.7|
5,4,8.9|
5,5,8.8|
5,6,5.1|
5,7,7.6|
6,0,10|
6,1,1.5|
6,2,5.4|
6,3,9.6|
6,4,5|
6,5,4.3|
6,6,7.6|
6,7,3.1|
7,0,2.8|
7,1,9.1|
7,2,7.5|
7,3,0.83|
7,4,4.9|
7,5,9.9|
7,6,6|
7,7,2.5|
];
constraint_x15_x11=[
0,0,7.1|
0,1,0.94|
0,2,4.6|
0,3,9|
0,4,7.1|
0,5,0.45|
0,6,8.6|
0,7,3|
1,0,4.2|
1,1,5.4|
1,2,0.58|
1,3,7.9|
1,4,4.4|
1,5,0.97|
1,6,6.7|
1,7,6.9|
2,0,1.8|
2,1,3.6|
2,2,3|
2,3,0.88|
2,4,5.4|
2,5,8.8|
2,6,3.6|
2,7,9.1|
3,0,3.4|
3,1,9.3|
3,2,5.7|
3,3,8.7|
3,4,4.4|
3,5,6.5|
3,6,9.1|
3,7,4.3|
4,0,2.2|
4,1,9.1|
4,2,3.3|
4,3,8.9|
4,4,1.4|
4,5,5.9|
4,6,5.9|
4,7,1.6|
5,0,6.3|
5,1,9.6|
5,2,3.7|
5,3,8.8|
5,4,2.4|
5,5,9.6|
5,6,0.39|
5,7,9.5|
6,0,2.8|
6,1,5|
6,2,2.2|
6,3,3.4|
6,4,3.8|
6,5,5.2|
6,6,9.5|
6,7,6.9|
7,0,8.5|
7,1,4.9|
7,2,4.6|
7,3,3.7|
7,4,4.5|
7,5,4.1|
7,6,9.8|
7,7,6.9|
];
constraint_x16_x12=[
0,0,7.8|
0,1,3|
0,2,3.7|
0,3,8|
0,4,2.9|
0,5,3.2|
0,6,8.1|
0,7,4|
1,0,0.096|
1,1,5.7|
1,2,0.26|
1,3,5|
1,4,1.2|
1,5,5.1|
1,6,6.6|
1,7,4.4|
2,0,3.7|
2,1,9|
2,2,5.2|
2,3,7.6|
2,4,1.4|
2,5,9.4|
2,6,6.6|
2,7,1.9|
3,0,5.2|
3,1,1.3|
3,2,4.9|
3,3,7|
3,4,5.8|
3,5,0.35|
3,6,1.7|
3,7,5.7|
4,0,0.55|
4,1,7.4|
4,2,8.7|
4,3,1.2|
4,4,5.7|
4,5,6.6|
4,6,0.25|
4,7,0.18|
5,0,0.18|
5,1,1.7|
5,2,8.2|
5,3,3.2|
5,4,4.9|
5,5,5.8|
5,6,7.6|
5,7,7.5|
6,0,5.7|
6,1,6.8|
6,2,9.5|
6,3,5.1|
6,4,5.2|
6,5,1.3|
6,6,4.8|
6,7,3.7|
7,0,5.9|
7,1,9.7|
7,2,2.7|
7,3,8.7|
7,4,9.1|
7,5,1.8|
7,6,0.038|
7,7,9|
];
constraint_x17_x13=[
0,0,9|
0,1,10|
0,2,8.6|
0,3,8.7|
0,4,9.2|
0,5,3.3|
0,6,3.9|
0,7,8|
1,0,2.7|
1,1,9.3|
1,2,0.6|
1,3,2.7|
1,4,2.5|
1,5,2.7|
1,6,9.5|
1,7,4|
2,0,0.41|
2,1,0.11|
2,2,3.4|
2,3,5.2|
2,4,9.2|
2,5,4.9|
2,6,7.1|
2,7,5.8|
3,0,2.4|
3,1,8.8|
3,2,2.8|
3,3,1.4|
3,4,3.3|
3,5,5.2|
3,6,3.8|
3,7,5.4|
4,0,0.45|
4,1,7.6|
4,2,9.5|
4,3,7.1|
4,4,3.8|
4,5,6|
4,6,8|
4,7,6.2|
5,0,6.6|
5,1,4.3|
5,2,5.8|
5,3,2.3|
5,4,3.2|
5,5,8.8|
5,6,6|
5,7,4.8|
6,0,5.3|
6,1,9.9|
6,2,6.1|
6,3,1.7|
6,4,7.2|
6,5,2.1|
6,6,9.9|
6,7,7.6|
7,0,3.4|
7,1,4.2|
7,2,9.5|
7,3,1.6|
7,4,0.97|
7,5,10|
7,6,3.9|
7,7,4.7|
];
constraint_x18_x14=[
0,0,7.6|
0,1,8.6|
0,2,4.9|
0,3,1.7|
0,4,8.8|
0,5,4.1|
0,6,0.35|
0,7,7|
1,0,6|
1,1,8|
1,2,8.2|
1,3,2.5|
1,4,9.2|
1,5,7.5|
1,6,5.5|
1,7,1.8|
2,0,3.3|
2,1,8.8|
2,2,4.1|
2,3,0.43|
2,4,7.2|
2,5,0.31|
2,6,2|
2,7,2.2|
3,0,2.6|
3,1,2.8|
3,2,6.9|
3,3,6|
3,4,8.5|
3,5,2.4|
3,6,1.9|
3,7,2|
4,0,4.1|
4,1,7.8|
4,2,2.9|
4,3,5.8|
4,4,6.9|
4,5,2.5|
4,6,6.8|
4,7,0.26|
5,0,9.1|
5,1,9.2|
5,2,6.4|
5,3,8.8|
5,4,4.8|
5,5,6.7|
5,6,0.88|
5,7,8.1|
6,0,2.7|
6,1,2|
6,2,6|
6,3,8|
6,4,4.9|
6,5,0.22|
6,6,7.1|
6,7,9.7|
7,0,5.8|
7,1,7.5|
7,2,3.6|
7,3,1.5|
7,4,2.3|
7,5,4.7|
7,6,8.1|
7,7,9.1|
];
constraint_x1_y1=[
0,0,6.6|
0,1,9.5|
0,2,8.2|
0,3,1.5|
0,4,6.4|
0,5,1.8|
0,6,0.17|
0,7,5.4|
1,0,5.1|
1,1,8.5|
1,2,10|
1,3,9.6|
1,4,6.9|
1,5,1.6|
1,6,3.9|
1,7,2.1|
2,0,4.4|
2,1,1.4|
2,2,8.3|
2,3,4.2|
2,4,3.3|
2,5,2|
2,6,2.8|
2,7,0.52|
3,0,2.3|
3,1,0.55|
3,2,3.1|
3,3,1.3|
3,4,9.7|
3,5,1.8|
3,6,5.1|
3,7,9|
4,0,2.1|
4,1,0.59|
4,2,0.54|
4,3,9.6|
4,4,2.7|
4,5,7|
4,6,4.7|
4,7,6.6|
5,0,4.9|
5,1,4.1|
5,2,4.1|
5,3,1.4|
5,4,9.3|
5,5,7.4|
5,6,2.6|
5,7,5.2|
6,0,1.8|
6,1,9.5|
6,2,1.2|
6,3,6.4|
6,4,0.13|
6,5,0.65|
6,6,2.7|
6,7,8.7|
7,0,2.7|
7,1,4.6|
7,2,1.1|
7,3,6|
7,4,1.2|
7,5,8.6|
7,6,6.6|
7,7,7.1|
];
constraint_x2_y2=[
0,0,0.48|
0,1,10|
0,2,2.9|
0,3,5.1|
0,4,1.4|
0,5,2.6|
0,6,2.2|
0,7,0.95|
1,0,0.89|
1,1,10|
1,2,5|
1,3,4.2|
1,4,4.3|
1,5,4.3|
1,6,0.19|
1,7,8.6|
2,0,5.5|
2,1,0.94|
2,2,8.8|
2,3,8|
2,4,1.3|
2,5,1|
2,6,6.2|
2,7,5.5|
3,0,2.4|
3,1,10|
3,2,3.4|
3,3,7.4|
3,4,3.6|
3,5,7.5|
3,6,7.6|
3,7,9.2|
4,0,4.3|
4,1,0.16|
4,2,4.5|
4,3,5.7|
4,4,9.6|
4,5,3.7|
4,6,3.5|
4,7,3.3|
5,0,4|
5,1,9.8|
5,2,9.7|
5,3,2.9|
5,4,8.5|
5,5,2.2|
5,6,7.1|
5,7,9.5|
6,0,3.7|
6,1,6.3|
6,2,8.6|
6,3,6.8|
6,4,4.4|
6,5,2.5|
6,6,1.2|
6,7,4.9|
7,0,6.4|
7,1,0.56|
7,2,2.3|
7,3,4.2|
7,4,9.6|
7,5,3|
7,6,4.7|
7,7,9.6|
];
constraint_x3_y3=[
0,0,4.9|
0,1,6.3|
0,2,1.1|
0,3,7.8|
0,4,6.4|
0,5,7.6|
0,6,4.7|
0,7,0.91|
1,0,7.4|
1,1,2.3|
1,2,2.6|
1,3,4.7|
1,4,6.5|
1,5,5.3|
1,6,1.4|
1,7,6|
2,0,9.2|
2,1,0.38|
2,2,2.9|
2,3,2.4|
2,4,7.8|
2,5,10|
2,6,6.3|
2,7,5.2|
3,0,0.32|
3,1,8.1|
3,2,0.0054|
3,3,0.35|
3,4,5|
3,5,3.5|
3,6,0.86|
3,7,7.8|
4,0,4.6|
4,1,8.4|
4,2,1.1|
4,3,8.8|
4,4,7.2|
4,5,7.2|
4,6,9.7|
4,7,8.3|
5,0,0.19|
5,1,3.4|
5,2,9.1|
5,3,1.1|
5,4,0.32|
5,5,4.1|
5,6,6|
5,7,8.8|
6,0,7.5|
6,1,7.6|
6,2,6.1|
6,3,2.4|
6,4,7.2|
6,5,4.2|
6,6,3.4|
6,7,4.3|
7,0,1.4|
7,1,1.1|
7,2,7.5|
7,3,9.9|
7,4,5.7|
7,5,4.7|
7,6,6.5|
7,7,2.1|
];
constraint_x4_y4=[
0,0,9.2|
0,1,4.7|
0,2,5.8|
0,3,6.6|
0,4,8|
0,5,5|
0,6,4.9|
0,7,6.1|
1,0,7.2|
1,1,1.8|
1,2,7.2|
1,3,5.2|
1,4,2.9|
1,5,10|
1,6,0.19|
1,7,0.61|
2,0,2|
2,1,5.7|
2,2,7.2|
2,3,7.8|
2,4,3.1|
2,5,7.6|
2,6,2.2|
2,7,6.9|
3,0,0.85|
3,1,5.3|
3,2,1|
3,3,1.7|
3,4,6.7|
3,5,4.8|
3,6,0.81|
3,7,2.7|
4,0,3.2|
4,1,1.4|
4,2,1.7|
4,3,8.8|
4,4,2.4|
4,5,4.9|
4,6,5|
4,7,2.2|
5,0,8.2|
5,1,2.4|
5,2,4.9|
5,3,9.6|
5,4,1.8|
5,5,1.3|
5,6,0.29|
5,7,3.1|
6,0,0.37|
6,1,6.6|
6,2,5.6|
6,3,1.5|
6,4,0.15|
6,5,4.3|
6,6,9|
6,7,6.2|
7,0,2.6|
7,1,6|
7,2,3.3|
7,3,3.5|
7,4,3.4|
7,5,8|
7,6,0.61|
7,7,0.97|
];
constraint_x5_y5=[
0,0,6.1|
0,1,7.1|
0,2,7.4|
0,3,6.2|
0,4,5.7|
0,5,0.48|
0,6,6.4|
0,7,8.9|
1,0,5.2|
1,1,1.2|
1,2,6.3|
1,3,0.039|
1,4,8.5|
1,5,5|
1,6,4.6|
1,7,3.5|
2,0,5.5|
2,1,8.1|
2,2,7.6|
2,3,4.1|
2,4,4.9|
2,5,2.1|
2,6,1.2|
2,7,8.4|
3,0,0.82|
3,1,9.3|
3,2,1.6|
3,3,7.1|
3,4,0.37|
3,5,5.2|
3,6,1.7|
3,7,7.3|
4,0,4.4|
4,1,2.2|
4,2,4.1|
4,3,8.6|
4,4,2|
4,5,3.9|
4,6,0.86|
4,7,1.4|
5,0,5.6|
5,1,6.8|
5,2,0.59|
5,3,0.95|
5,4,5.4|
5,5,7.7|
5,6,9.5|
5,7,9|
6,0,1.8|
6,1,4.6|
6,2,5.7|
6,3,9.3|
6,4,9.7|
6,5,3.8|
6,6,7.5|
6,7,4.6|
7,0,7.9|
7,1,9.2|
7,2,6.2|
7,3,9.4|
7,4,3.6|
7,5,5|
7,6,3.9|
7,7,9|
];
constraint_x6_y6=[
0,0,6.9|
0,1,9.6|
0,2,9.9|
0,3,1.8|
0,4,4.9|
0,5,1.7|
0,6,4.3|
0,7,9.9|
1,0,0.7|
1,1,2.7|
1,2,2.9|
1,3,8.3|
1,4,5.3|
1,5,0.18|
1,6,0.54|
1,7,0.63|
2,0,3.5|
2,1,9.6|
2,2,0.13|
2,3,8.7|
2,4,6.8|
2,5,3.1|
2,6,4.8|
2,7,3.5|
3,0,7.3|
3,1,3.8|
3,2,7.7|
3,3,1.4|
3,4,8.2|
3,5,9.1|
3,6,0.16|
3,7,9.6|
4,0,2.5|
4,1,5.9|
4,2,1.2|
4,3,9.4|
4,4,5.7|
4,5,7.9|
4,6,2.9|
4,7,3.8|
5,0,4.5|
5,1,0.51|
5,2,9|
5,3,2.8|
5,4,1.7|
5,5,2.5|
5,6,0.069|
5,7,1.7|
6,0,2.7|
6,1,1.9|
6,2,7.9|
6,3,4.5|
6,4,1.4|
6,5,3.5|
6,6,8.6|
6,7,5.1|
7,0,8|
7,1,4.5|
7,2,4|
7,3,6|
7,4,3.6|
7,5,0.21|
7,6,6.6|
7,7,7|
];
constraint_x7_y7=[
0,0,4.7|
0,1,0.62|
0,2,0.64|
0,3,4.8|
0,4,4.2|
0,5,4.1|
0,6,8.7|
0,7,7.7|
1,0,0.58|
1,1,4.8|
1,2,1.7|
1,3,4.4|
1,4,8.4|
1,5,3.9|
1,6,3.4|
1,7,3.3|
2,0,6.3|
2,1,0.1|
2,2,2.7|
2,3,2|
2,4,4.2|
2,5,9.1|
2,6,5.6|
2,7,4|
3,0,3.6|
3,1,2.8|
3,2,9.7|
3,3,2.4|
3,4,6.8|
3,5,0.14|
3,6,6|
3,7,7.3|
4,0,5.7|
4,1,4.1|
4,2,4.8|
4,3,7.9|
4,4,9|
4,5,3|
4,6,4.6|
4,7,1.1|
5,0,9.7|
5,1,8|
5,2,0.44|
5,3,6.2|
5,4,3.7|
5,5,0.35|
5,6,3.3|
5,7,6.6|
6,0,8|
6,1,8.9|
6,2,9.6|
6,3,1.5|
6,4,0.28|
6,5,3|
6,6,9.9|
6,7,6.7|
7,0,9.6|
7,1,8.5|
7,2,9.9|
7,3,3.8|
7,4,7.3|
7,5,9.2|
7,6,4|
7,7,5|
];
constraint_x8_y8=[
0,0,7.6|
0,1,9.6|
0,2,0.24|
0,3,6.5|
0,4,3.9|
0,5,0.5|
0,6,1.9|
0,7,6.9|
1,0,4|
1,1,0.55|
1,2,6.5|
1,3,1.8|
1,4,4.3|
1,5,4.5|
1,6,5.2|
1,7,2.1|
2,0,6.4|
2,1,4.9|
2,2,5.4|
2,3,6.1|
2,4,3.8|
2,5,4.4|
2,6,3.8|
2,7,5.3|
3,0,0.84|
3,1,0.97|
3,2,6.2|
3,3,9.6|
3,4,0.96|
3,5,9.5|
3,6,4.8|
3,7,7.2|
4,0,7.6|
4,1,1.5|
4,2,3.3|
4,3,2|
4,4,9.4|
4,5,0.96|
4,6,1.1|
4,7,0.62|
5,0,0.78|
5,1,8.8|
5,2,4.2|
5,3,3.2|
5,4,2.6|
5,5,3.3|
5,6,9.3|
5,7,6.8|
6,0,3.9|
6,1,7.1|
6,2,6.8|
6,3,3.2|
6,4,1.7|
6,5,9.9|
6,6,3.2|
6,7,3.1|
7,0,2.3|
7,1,6.2|
7,2,4.3|
7,3,8.6|
7,4,4.3|
7,5,2.9|
7,6,5.5|
7,7,0.29|
];
initial_distribution_y1=[0.1,0.15,0.064,0.16,0.17,0.2,0.04,0.12];
initial_distribution_y2=[0.13,0.12,0.1,0.22,0.15,0.053,0.043,0.18];
initial_distribution_y3=[0.14,0.12,0.12,0.17,0.13,0.093,0.14,0.083];
initial_distribution_y4=[0.027,0.17,0.16,0.17,0.06,0.18,0.17,0.073];
initial_distribution_y5=[0.067,0.12,0.043,0.19,0.18,0.047,0.22,0.13];
initial_distribution_y6=[0.24,0.0031,0.18,0.11,0.16,0.096,0.068,0.14];
initial_distribution_y7=[0.14,0.17,0.09,0.069,0.015,0.22,0.21,0.086];
initial_distribution_y8=[0.24,0.23,0.061,0.15,0.19,0.023,0.073,0.03];
transition_y1=[
0.097,0.0085,0.13,0.22,0.073,0.13,0.23,0.11|
0.12,0.015,0.21,0.18,0.2,0.053,0.05,0.17|
0.19,0.16,0.14,0.15,0.17,0.081,0.085,0.028|
0.18,0.11,0.22,0.062,0.0062,0.051,0.22,0.15|
0.058,0.16,0.16,0.23,0.06,0.03,0.19,0.12|
0.11,0.17,0.077,0.2,0.016,0.1,0.13,0.2|
0.031,0.14,0.27,0.012,0.093,0.1,0.1,0.25|
0.096,0.088,0.074,0.18,0.073,0.24,0.18,0.072|
];
transition_y2=[
0.13,0.057,0.095,0.21,0.041,0.076,0.21,0.18|
0.17,0.19,0.17,0.19,0.095,0.01,0.14,0.032|
0.04,0.14,0.19,0.16,0.17,0.19,0.06,0.049|
0.077,0.059,0.11,0.25,0.12,0.068,0.11,0.21|
0.14,0.079,0.0095,0.1,0.22,0.2,0.0077,0.24|
0.26,0.14,0.13,0.029,0.077,0.15,0.038,0.18|
0.18,0.12,0.12,0.16,0.004,0.16,0.11,0.14|
0.21,0.044,0.088,0.16,0.054,0.15,0.11,0.18|
];
transition_y3=[
0.028,0.019,0.14,0.088,0.31,0.1,0.0059,0.31|
0.011,0.15,0.18,0.041,0.19,0.15,0.24,0.035|
0.13,0.13,0.14,0.13,0.024,0.19,0.065,0.19|
0.14,0.22,0.25,0.14,0.088,0.025,0.13,0.0032|
0.2,0.023,0.2,0.16,0.13,0.16,0.054,0.082|
0.14,0.013,0.11,0.19,0.046,0.14,0.16,0.19|
0.13,0.28,0.0085,0.049,0.27,0.21,0.023,0.029|
0.065,0.18,0.064,0.038,0.14,0.2,0.19,0.12|
];
transition_y4=[
0.17,0.1,0.054,0.14,0.025,0.21,0.14,0.15|
0.16,0.23,0.11,0.012,0.15,0.19,0.11,0.05|
0.18,0.16,0.077,0.16,0.17,0.14,0.064,0.037|
0.19,0.2,0.0046,0.061,0.15,0.15,0.17,0.082|
0.21,0.093,0.035,0.2,0.2,0.066,0.13,0.069|
0.11,0.098,0.18,0.075,0.15,0.18,0.11,0.089|
0.11,0.1,0.11,0.049,0.12,0.17,0.18,0.15|
0.16,0.16,0.12,0.018,0.18,0.19,0.088,0.08|
];
transition_y5=[
0.2,0.12,0.0091,0.061,0.064,0.072,0.23,0.24|
0.24,0.065,0.067,0.016,0.077,0.23,0.05,0.26|
0.25,0.02,0.21,0.14,0.056,0.018,0.1,0.2|
0.11,0.14,0.13,0.15,0.18,0.15,0.03,0.11|
0.11,0.15,0.16,0.18,0.099,0.22,0.019,0.058|
0.11,0.22,0.12,0.13,0.16,0.066,0.082,0.095|
0.075,0.12,0.15,0.13,0.077,0.16,0.17,0.11|
0.063,0.15,0.095,0.13,0.13,0.16,0.16,0.12|
];
transition_y6=[
0.19,0.0043,0.12,0.11,0.093,0.2,0.095,0.19|
0.078,0.26,0.15,0.14,0.087,0.014,0.22,0.052|
0.24,0.21,0.22,0.038,0.037,0.029,0.049,0.18|
0.05,0.18,0.082,0.0094,0.17,0.096,0.21,0.2|
0.011,0.096,0.16,0.16,0.15,0.28,0.12,0.026|
0.16,0.11,0.26,0.062,0.26,0.0097,0.026,0.11|
0.018,0.072,0.082,0.26,0.0092,0.13,0.19,0.24|
0.13,0.18,0.25,0.23,0.08,0.0051,0.12,0.0035|
];
transition_y7=[
0.2,0.067,0.15,0.1,0.13,0.18,0.086,0.095|
0.047,0.065,0.011,0.059,0.19,0.11,0.2,0.32|
0.087,0.044,0.14,0.21,0.082,0.065,0.086,0.29|
0.072,0.18,0.12,0.08,0.21,0.12,0.15,0.076|
0.11,0.018,0.11,0.098,0.19,0.14,0.19,0.13|
0.077,0.076,0.04,0.24,0.11,0.26,0.045,0.15|
0.12,0.16,0.038,0.14,0.092,0.13,0.21,0.11|
0.15,0.099,0.13,0.11,0.25,0.099,0.12,0.05|
];
transition_y8=[
0.14,0.079,0.18,0.19,0.18,0.082,0.014,0.13|
0.085,0.23,0.21,0.19,0.087,0.035,0.15,0.0092|
0.12,0.12,0.0046,0.25,0.3,0.024,0.028,0.17|
0.094,0.19,0.13,0.18,0.19,0.015,0.17,0.035|
0.037,0.18,0.14,0.19,0.11,0.14,0.012,0.2|
0.074,0.11,0.04,0.28,0.12,0.16,0.11,0.11|
0.27,0.1,0.055,0.061,0.19,0.017,0.29,0.008|
0.14,0.11,0.17,0.019,0.18,0.06,0.15,0.18|
];
